%%% static parameters %%%
timespan = 1;
Fact = [2];
Distr1 = [5];
Distr2 = [20];
Clients_N = [1000];
Demand_W = [15];
Lt0 = [4];
Lt1 = [4];
SS_ = [0.85];
DS_D = [20];
K = [200];
MA = [500];
%%% dynamic parameters %%%
lost_ratio_sales_ret_th = 0.0041173324809997015;
lost_ratio_sales_ret_w = 85;
lost_ratio_sales_dis_th = 0.00542531654516081;
lost_ratio_sales_dis_w = 69;
lost_ratio_sales_fac_th = 0.006675024322750717;
lost_ratio_sales_fac_w = 65;
stock_customer_MA_mean_relative_th = 0.3746110122045462;
stock_customer_MA_mean_relative_w = 89;
stock_distributor_MA_mean_relative_th = 0.6863751070887846;
stock_distributor_MA_mean_relative_w = 92;
stock_retailer_MA_mean_relative_th = 0.10270103869771263;
stock_retailer_MA_mean_relative_w = 30;
stock_factory_MA_mean_relative_th = 0.13878359892356973;
stock_factory_MA_mean_relative_w = 40;
